Route #1: 25 53 45 41 24 6 19
Route #2: 43 23 50 22 38 9 12 5 40
Route #3: 49 33 2 30 34 54 31 20 55 11 32
Route #4: 36 48 35 21 16 52 1
Route #5: 47 26 4 39 42 29 37 7 15
Route #6: 18 10 8 17 51 14 44 28 46
Route #7: 13 3 27
Cost 750